c   #vars: 120   #clauses: 538   #literals: 1424
c 
p cnf 120 538
-1 -2 0
-3 -4 0
-5 -6 0
-7 -8 0
-9 -10 0
-11 -12 0
-13 -14 0
88 89 119 120 0
-15 -16 0
-17 -18 0
-19 -20 0
-21 -22 0
-23 -24 0
-25 -26 0
-27 -28 0
-29 -30 0
-31 -32 0
-33 -34 0
-35 -36 0
25 26 62 63 0
-37 -38 0
-39 -40 0
-41 -42 0
11 12 68 -96 0
-44 -45 0
-46 -47 0
-48 -49 0
-50 -51 0
17 18 90 91 0
9 10 86 87 0
-52 -53 0
-54 -55 0
7 8 60 61 0
15 16 60 61 0
-56 -57 0
103 104 105 106 0
-58 -59 0
-60 -61 0
-62 -63 0
-64 -65 0
-66 -67 0
66 67 73 -86 0
-69 -70 0
-71 -72 0
35 36 -94 98 0
-74 -75 0
-76 -77 0
-78 -79 0
3 4 103 104 0
-80 -81 0
-82 -83 0
-84 -85 0
-86 -87 0
-88 -89 0
-90 -91 0
-92 -93 0
-94 -95 0
-96 -97 0
-99 -100 0
-101 -102 0
1 2 56 57 0
-103 -104 0
-105 -106 0
-107 -108 0
-109 -110 0
-111 -112 0
-113 -114 0
-115 -116 0
11 12 109 110 0
-117 -118 0
5 6 80 81 0
-119 -120 0
7 8 11 12 0
-1 -35 0
-2 -36 0
43 -76 103 104 0
-1 -50 0
-2 -51 0
66 67 99 100 0
-1 -56 0
-2 -57 0
27 28 94 95 0
-1 -78 0
-2 -79 0
78 79 90 91 0
115 116 117 118 0
-1 -115 0
-2 -116 0
101 102 117 118 0
-3 -25 0
-4 -26 0
-3 -56 0
-4 -57 0
54 55 111 112 0
-3 -103 0
-4 -104 0
25 26 54 55 0
-3 -113 0
-4 -114 0
-5 -7 0
-6 -8 0
9 10 13 14 0
-5 -41 0
-6 -42 0
-5 -80 0
-6 -81 0
44 45 88 89 0
-5 -96 0
-6 -97 0
23 24 94 95 0
-7 -11 0
-8 -12 0
15 16 50 51 0
-7 -29 0
-8 -30 0
15 16 111 112 0
-7 -33 0
-8 -34 0
39 40 107 108 0
11 12 -15 68 0
-8 -43 0
15 16 71 72 0
-7 -60 0
-8 -61 0
15 16 64 65 0
-7 -62 0
-8 -63 0
17 18 35 36 0
-9 -13 0
-10 -14 0
17 18 82 83 0
-9 -19 0
-10 -20 0
23 24 105 106 0
-9 -39 0
-10 -40 0
71 72 90 91 0
-9 -52 0
-10 -53 0
25 26 101 102 0
-9 -86 0
-10 -87 0
66 67 88 89 0
66 67 -69 73 0
-12 -68 0
-11 -99 0
-12 -100 0
23 24 92 93 0
-11 -101 0
-12 -102 0
64 65 113 114 0
-11 -107 0
-12 -108 0
-11 -109 0
-12 -110 0
50 51 105 106 0
-13 -35 0
-14 -36 0
29 30 39 40 0
-13 -41 0
-14 -42 0
21 22 52 53 0
-13 -74 0
-14 -75 0
29 30 60 61 0
37 38 76 77 0
29 30 103 104 0
-15 -48 0
-16 -49 0
56 57 84 85 0
-15 -50 0
-16 -51 0
21 22 101 102 0
-15 -60 0
-16 -61 0
105 106 107 108 0
-15 -64 0
-16 -65 0
69 70 73 -86 0
-16 -68 0
71 72 78 79 0
-15 -71 0
-16 -72 0
-15 -111 0
-16 -112 0
9 10 19 20 0
-17 -35 0
-18 -36 0
58 59 76 77 0
-17 -74 0
-18 -75 0
80 81 84 85 0
-17 -82 0
-18 -83 0
46 47 62 63 0
-17 -88 0
-18 -89 0
54 55 113 114 0
-17 -90 0
-18 -91 0
3 4 25 26 0
-19 -21 0
-20 -22 0
31 32 48 49 0
-19 -35 0
-20 -36 0
66 67 76 77 0
-19 -60 0
-20 -61 0
62 63 71 72 0
-19 -69 0
-20 -70 0
5 6 41 42 0
-21 -37 0
-22 -38 0
37 38 58 59 0
-21 -52 0
-22 -53 0
7 8 29 30 0
-21 -86 0
-22 -87 0
-21 -101 0
-22 -102 0
94 95 115 116 0
-21 -111 0
-22 -112 0
-21 -119 0
-22 -120 0
23 24 46 47 0
-23 -35 0
-24 -36 0
46 47 109 110 0
-23 -46 0
-24 -47 0
41 42 46 47 0
-23 -60 0
-24 -61 0
-23 -92 0
-24 -93 0
44 45 96 97 0
-23 -94 0
-24 -95 0
46 47 80 81 0
-23 -105 0
-24 -106 0
27 28 92 93 0
-25 -54 0
-26 -55 0
27 28 80 81 0
-25 -60 0
-26 -61 0
7 8 43 -103 0
-25 -62 0
-26 -63 0
33 34 99 100 0
-25 -101 0
-26 -102 0
7 8 62 63 0
-27 -80 0
-28 -81 0
37 38 92 93 0
-27 -88 0
-28 -89 0
31 32 33 34 0
-27 -92 0
-28 -93 0
27 28 88 89 0
-27 -94 0
-28 -95 0
54 55 86 87 0
-27 -109 0
-28 -110 0
-29 -39 0
-30 -40 0
44 45 66 67 0
-29 -56 0
-30 -57 0
7 8 33 34 0
-29 -60 0
-30 -61 0
-29 -96 0
-30 -97 0
1 2 50 51 0
-29 -103 0
-30 -104 0
84 85 115 116 0
-29 -111 0
-30 -112 0
33 34 35 36 0
-31 -33 0
-32 -34 0
31 32 74 75 0
-31 -41 0
-32 -42 0
52 53 62 63 0
-31 -48 0
-32 -49 0
-31 -58 0
-32 -59 0
71 72 74 75 0
-31 -66 0
-32 -67 0
11 12 101 102 0
-31 -74 0
-32 -75 0
1 2 115 116 0
-31 -103 0
-32 -104 0
39 40 88 89 0
5 6 7 8 0
-2 -90 -91 -115 0
7 8 43 -76 0
1 2 35 36 0
-33 -35 0
-34 -36 0
23 24 35 36 0
-33 -54 0
-34 -55 0
19 20 35 36 0
78 79 109 110 0
-33 -99 0
-34 -100 0
13 14 35 36 0
-33 -119 0
-34 -120 0
-36 -98 0
39 40 78 79 0
13 14 41 42 0
-37 -58 0
-38 -59 0
31 32 103 104 0
-37 -76 0
-38 -77 0
37 38 86 87 0
-37 -86 0
-38 -87 0
-37 -92 0
-38 -93 0
-39 -78 0
-40 -79 0
-66 73 86 87 0
-39 -82 0
-40 -83 0
46 47 90 91 0
-39 -88 0
-40 -89 0
-40 -98 0
48 49 113 114 0
-39 -107 0
-40 -108 0
19 20 60 61 0
-39 -109 0
-40 -110 0
-41 -46 0
-42 -47 0
48 49 90 91 0
-41 -105 0
-42 -106 0
15 16 48 49 0
-7 43 76 77 0
-7 43 103 104 0
21 22 111 112 0
-15 68 96 97 0
-43 -77 0
31 32 66 67 0
-11 68 96 97 0
-43 -104 0
9 10 52 53 0
-44 -66 0
-45 -67 0
19 20 21 22 0
-44 -74 0
-45 -75 0
50 51 76 77 0
-44 -88 0
-45 -89 0
-44 -96 0
-45 -97 0
29 30 96 97 0
-44 -105 0
-45 -106 0
50 51 52 53 0
-46 -62 0
-47 -63 0
-46 -80 0
-47 -81 0
-46 -90 0
-47 -91 0
33 34 119 120 0
-46 -109 0
-47 -110 0
-48 -90 0
-49 -91 0
21 22 37 38 0
-48 -113 0
-49 -114 0
60 61 82 83 0
58 59 64 65 0
-50 -52 0
-51 -53 0
3 4 56 57 0
-50 -76 0
-51 -77 0
-50 -105 0
-51 -106 0
31 32 41 42 0
21 22 86 87 0
-52 -62 0
-53 -63 0
-35 39 40 98 0
-52 -69 0
-53 -70 0
94 95 117 118 0
-54 -86 0
-55 -87 0
-54 -111 0
-55 -112 0
84 85 119 120 0
-54 -113 0
-55 -114 0
64 65 92 93 0
-56 -84 0
-57 -85 0
39 40 -94 98 0
-56 -105 0
-57 -106 0
62 63 86 87 0
43 76 77 -103 0
31 32 58 59 0
-58 -64 0
-59 -65 0
52 53 69 70 0
-58 -74 0
-59 -75 0
19 20 69 70 0
-58 -76 0
-59 -77 0
69 70 117 118 0
-60 -82 0
-61 -83 0
21 22 119 120 0
-62 -71 0
-63 -72 0
62 63 76 77 0
-62 -76 0
-63 -77 0
76 77 101 102 0
-62 -86 0
-63 -87 0
11 12 107 108 0
-64 -92 0
-65 -93 0
25 26 60 61 0
-64 -113 0
-65 -114 0
35 36 -39 98 0
-67 -73 0
58 59 74 75 0
-66 -76 0
-67 -77 0
44 45 74 75 0
-66 -88 0
-67 -89 0
27 28 109 110 0
-66 -99 0
-67 -100 0
17 18 74 75 0
-66 69 70 73 0
-68 -97 0
-39 94 95 98 0
-70 -73 0
44 45 105 106 0
-69 -117 0
-70 -118 0
41 42 105 106 0
-71 -74 0
-72 -75 0
-71 -78 0
-72 -79 0
-11 15 16 68 0
-71 -90 0
-72 -91 0
33 34 54 55 0
-35 94 95 98 0
-73 -87 0
82 83 103 104 0
-76 -101 0
-77 -102 0
-69 73 86 87 0
-78 -90 0
-79 -91 0
39 40 82 83 0
-78 -109 0
-79 -110 0
-1 -90 -91 -116 0
23 24 60 61 0
56 57 105 106 0
-90 -91 107 108 0
29 30 56 57 0
-80 -84 0
-81 -85 0
9 10 39 40 0
-82 -103 0
-83 -104 0
39 40 109 110 0
-84 -115 0
-85 -116 0
29 30 111 112 0
-84 -119 0
-85 -120 0
86 87 88 89 0
-86 -88 0
-87 -89 0
13 14 74 75 0
-88 -119 0
-89 -120 0
15 16 68 -96 0
-95 -98 0
5 6 96 97 0
-94 -115 0
-95 -116 0
-94 -117 0
-95 -118 0
17 18 88 89 0
-99 -117 0
-100 -118 0
11 12 99 100 0
-101 -117 0
-102 -118 0
1 2 78 79 0
-103 -105 0
-104 -106 0
3 4 113 114 0
-105 -107 0
-106 -108 0
99 100 117 118 0
-115 -117 0
-116 -118 0
